experiment/data/hgs-res/Vrp-Set-B-n66/Vrp-Set-B-n66-hgs/0.hgs1.vrp
NAME : 0
COMMENT : CVRP Instance
TYPE : CVRP
DIMENSION : 66
EDGE_WEIGHT_TYPE : EUC_2D
CAPACITY : 100
NODE_COORD_SECTION
1	41.0	88.0
2	53.0	83.0
3	87.0	28.0
4	42.0	11.0
5	22.0	1.0
6	34.0	36.0
7	84.0	33.0
8	81.0	63.0
9	11.0	29.0
10	62.0	27.0
11	90.0	30.0
12	84.0	69.0
13	69.0	33.0
14	89.0	72.0
15	45.0	16.0
16	28.0	6.0
17	89.0	35.0
18	58.0	88.0
19	62.0	87.0
20	88.0	67.0
21	57.0	90.0
22	54.0	0.0
23	92.0	71.0
24	63.0	86.0
25	70.0	34.0
26	91.0	35.0
27	93.0	30.0
28	39.0	44.0
29	86.0	36.0
30	43.0	13.0
31	89.0	41.0
32	85.0	70.0
33	0.0	72.0
34	18.0	39.0
35	93.0	76.0
36	90.0	65.0
37	88.0	0.0
38	91.0	36.0
39	87.0	66.0
40	45.0	14.0
41	0.0	33.0
42	54.0	89.0
43	35.0	46.0
44	91.0	73.0
45	95.0	35.0
46	85.0	71.0
47	94.0	31.0
48	88.0	37.0
49	91.0	35.0
50	66.0	34.0
51	86.0	38.0
52	92.0	77.0
53	56.0	93.0
54	58.0	91.0
55	60.0	91.0
56	61.0	84.0
57	90.0	70.0
58	85.0	67.0
59	0.0	69.0
60	94.0	35.0
61	28.0	5.0
62	89.0	37.0
63	90.0	34.0
64	94.0	32.0
65	95.0	35.0
66	16.0	32.0
DEMAND_SECTION
1	0
2	5
3	20
4	7
5	2
6	19
7	19
8	9
9	15
10	22
11	14
12	15
13	18
14	4
15	6
16	4
17	10
18	16
19	14
20	1
21	23
22	19
23	16
24	22
25	15
26	4
27	21
28	16
29	22
30	6
31	2
32	11
33	5
34	2
35	12
36	6
37	17
38	15
39	11
40	4
41	22
42	13
43	21
44	13
45	20
46	6
47	15
48	22
49	11
50	18
51	8
52	22
53	16
54	7
55	16
56	21
57	16
58	17
59	16
60	23
61	3
62	20
63	13
64	6
65	12
66	15
DEPOT_SECTION
1
-1
EOF
