experiment/data/hgs-res/Vrp-Set-B-n66/Vrp-Set-B-n66-hgs/0.hgs1.log
=========== Algorithm Parameters =================
---- nbGranular        is set to 20
---- mu                is set to 25
---- lambda            is set to 40
---- nbElite           is set to 4
---- nbClose           is set to 5
---- targetFeasible    is set to 0.2
---- seed              is set to 1234
---- nbIter            is set to 20000
---- timeLimit         is set to 0
---- useSwapStar       is set to 1
==================================================
----- READING INSTANCE: baseline_results/cvrp_hgs/Vrp-Set-B-n66/Vrp-Set-B-n66-hgs/0.hgs1.vrp
----- FLEET SIZE WAS NOT SPECIFIED: DEFAULT INITIALIZATION TO 15 VEHICLES
----- INSTANCE SUCCESSFULLY LOADED WITH 65 CLIENTS AND 15 VEHICLES
----- BUILDING INITIAL POPULATION
----- STARTING GENETIC ALGORITHM
It      0      1 | T(s) 0.06 | Feas 55 1332.30 1339.07 | Inf 12 1327.35 1365.08 | Div 0.43 0.49 | Feas 0.89 1.00 | Pen 4.20 0.85
It    500     30 | T(s) 0.28 | Feas 45 1326.20 1330.31 | Inf 27 1299.95 1309.92 | Div 0.41 0.35 | Feas 0.25 1.00 | Pen 2.19 0.38
It   1000    530 | T(s) 0.53 | Feas 50 1326.20 1331.20 | Inf 50 1301.01 1305.32 | Div 0.43 0.25 | Feas 0.38 1.00 | Pen 2.28 0.17
It   1500     14 | T(s) 0.77 | Feas 32 1325.95 1329.78 | Inf 38 1301.56 1306.87 | Div 0.44 0.27 | Feas 0.14 1.00 | Pen 2.33 0.10
It   2000     39 | T(s) 1.02 | Feas 29 1325.45 1331.51 | Inf 60 1294.21 1297.72 | Div 0.44 0.29 | Feas 0.26 1.00 | Pen 1.72 0.10
It   2500    113 | T(s) 1.27 | Feas 34 1324.71 1328.97 | Inf 52 1298.33 1303.99 | Div 0.41 0.27 | Feas 0.24 1.00 | Pen 2.06 0.10
It   3000    613 | T(s) 1.54 | Feas 50 1324.71 1327.78 | Inf 41 1298.33 1302.15 | Div 0.36 0.27 | Feas 0.17 1.00 | Pen 2.06 0.10
It   3500   1113 | T(s) 1.78 | Feas 54 1324.71 1326.58 | Inf 56 1298.33 1302.49 | Div 0.31 0.27 | Feas 0.22 1.00 | Pen 2.06 0.10
It   4000   1613 | T(s) 2.02 | Feas 46 1324.71 1326.14 | Inf 36 1295.04 1298.53 | Div 0.29 0.27 | Feas 0.29 1.00 | Pen 1.78 0.10
It   4500   2113 | T(s) 2.26 | Feas 27 1324.71 1327.16 | Inf 59 1295.91 1299.03 | Div 0.36 0.24 | Feas 0.32 1.00 | Pen 1.86 0.10
It   5000   2613 | T(s) 2.51 | Feas 37 1324.71 1326.68 | Inf 36 1296.35 1301.16 | Div 0.32 0.29 | Feas 0.24 1.00 | Pen 1.89 0.10
It   5500   3113 | T(s) 2.77 | Feas 51 1324.71 1325.99 | Inf 41 1297.27 1309.75 | Div 0.29 0.37 | Feas 0.18 1.00 | Pen 1.97 0.10
It   6000   3613 | T(s) 3.03 | Feas 46 1324.71 1326.76 | Inf 29 1298.22 1316.63 | Div 0.31 0.42 | Feas 0.10 1.00 | Pen 2.05 0.10
It   6500   4113 | T(s) 3.28 | Feas 41 1324.71 1325.76 | Inf 59 1299.22 1302.89 | Div 0.26 0.21 | Feas 0.24 1.00 | Pen 2.13 0.10
It   7000   4613 | T(s) 3.54 | Feas 54 1324.71 1325.49 | Inf 54 1299.73 1303.86 | Div 0.23 0.23 | Feas 0.21 1.00 | Pen 2.18 0.10
It   7500   5113 | T(s) 3.78 | Feas 55 1324.71 1326.54 | Inf 44 1300.25 1305.27 | Div 0.30 0.26 | Feas 0.24 1.00 | Pen 2.22 0.10
It   8000   5613 | T(s) 4.04 | Feas 58 1324.71 1326.90 | Inf 30 1301.33 1309.29 | Div 0.33 0.31 | Feas 0.13 1.00 | Pen 2.31 0.10
It   8500   6113 | T(s) 4.30 | Feas 37 1324.71 1328.68 | Inf 55 1297.64 1305.41 | Div 0.37 0.29 | Feas 0.03 1.00 | Pen 2.00 0.10
It   9000   6613 | T(s) 4.56 | Feas 49 1324.71 1326.99 | Inf 30 1294.04 1298.20 | Div 0.32 0.32 | Feas 0.27 1.00 | Pen 1.70 0.10
It   9500   7113 | T(s) 4.82 | Feas 51 1324.71 1326.08 | Inf 27 1298.61 1305.34 | Div 0.29 0.31 | Feas 0.22 1.00 | Pen 2.08 0.10
It  10000   7613 | T(s) 5.07 | Feas 52 1324.71 1327.09 | Inf 59 1299.11 1303.04 | Div 0.34 0.23 | Feas 0.16 1.00 | Pen 2.12 0.10
It  10500    478 | T(s) 5.30 | Feas 45 1324.57 1326.45 | Inf 29 1296.17 1301.71 | Div 0.31 0.29 | Feas 0.33 1.00 | Pen 1.88 0.10
It  11000    978 | T(s) 5.55 | Feas 41 1324.57 1326.10 | Inf 61 1296.62 1299.02 | Div 0.31 0.22 | Feas 0.19 1.00 | Pen 1.92 0.10
It  11500   1478 | T(s) 5.81 | Feas 43 1324.57 1326.24 | Inf 52 1292.09 1297.18 | Div 0.32 0.33 | Feas 0.30 1.00 | Pen 1.66 0.10
It  12000   1978 | T(s) 6.07 | Feas 39 1324.57 1325.38 | Inf 35 1294.36 1300.26 | Div 0.25 0.36 | Feas 0.34 1.00 | Pen 1.73 0.10
It  12500   2478 | T(s) 6.34 | Feas 39 1324.57 1326.31 | Inf 44 1298.51 1302.68 | Div 0.31 0.25 | Feas 0.18 1.00 | Pen 2.07 0.10
It  13000   2978 | T(s) 6.60 | Feas 55 1324.57 1327.43 | Inf 52 1299.52 1309.53 | Div 0.34 0.32 | Feas 0.05 1.00 | Pen 2.16 0.10
It  13500   3478 | T(s) 6.85 | Feas 54 1324.57 1327.05 | Inf 47 1300.56 1303.95 | Div 0.33 0.23 | Feas 0.09 1.00 | Pen 2.24 0.10
It  14000   3978 | T(s) 7.09 | Feas 64 1324.57 1325.55 | Inf 63 1296.52 1297.59 | Div 0.25 0.18 | Feas 0.23 1.00 | Pen 1.91 0.10
It  14500   4478 | T(s) 7.35 | Feas 57 1324.57 1325.99 | Inf 56 1296.98 1310.58 | Div 0.30 0.34 | Feas 0.06 1.00 | Pen 1.95 0.10
It  15000   4978 | T(s) 7.61 | Feas 59 1324.57 1325.44 | Inf 42 1297.45 1303.48 | Div 0.23 0.29 | Feas 0.22 1.00 | Pen 1.99 0.10
It  15500   5478 | T(s) 7.86 | Feas 62 1324.57 1325.29 | Inf 26 1297.45 1304.28 | Div 0.24 0.34 | Feas 0.20 1.00 | Pen 1.99 0.10
It  16000   5978 | T(s) 8.11 | Feas 49 1324.57 1325.27 | Inf 59 1297.92 1300.68 | Div 0.23 0.21 | Feas 0.24 1.00 | Pen 2.03 0.10
It  16500   6478 | T(s) 8.35 | Feas 32 1324.57 1327.44 | Inf 54 1298.91 1305.74 | Div 0.36 0.26 | Feas 0.09 1.00 | Pen 2.11 0.10
It  17000   6978 | T(s) 8.60 | Feas 29 1324.57 1325.87 | Inf 45 1299.93 1304.70 | Div 0.31 0.25 | Feas 0.25 1.00 | Pen 2.19 0.10
It  17500   7478 | T(s) 8.83 | Feas 48 1324.57 1325.00 | Inf 63 1296.43 1299.01 | Div 0.19 0.22 | Feas 0.31 1.00 | Pen 1.90 0.10
It  18000   7978 | T(s) 9.08 | Feas 27 1324.57 1326.03 | Inf 53 1296.89 1300.47 | Div 0.32 0.24 | Feas 0.20 1.00 | Pen 1.94 0.10
It  18500   8478 | T(s) 9.34 | Feas 49 1324.57 1326.10 | Inf 63 1297.82 1313.04 | Div 0.28 0.32 | Feas 0.04 1.00 | Pen 2.02 0.10
It  19000   8978 | T(s) 9.59 | Feas 42 1324.57 1326.21 | Inf 57 1298.80 1305.26 | Div 0.29 0.25 | Feas 0.17 1.00 | Pen 2.10 0.10
It  19500   9478 | T(s) 9.85 | Feas 33 1324.57 1328.33 | Inf 46 1295.89 1300.12 | Div 0.37 0.25 | Feas 0.28 1.00 | Pen 1.86 0.10
It  20000   9978 | T(s) 10.10 | Feas 60 1324.57 1325.70 | Inf 38 1296.79 1306.82 | Div 0.26 0.35 | Feas 0.25 1.00 | Pen 1.93 0.10
It  20500  10478 | T(s) 10.37 | Feas 26 1324.57 1326.76 | Inf 56 1297.25 1304.04 | Div 0.34 0.27 | Feas 0.25 1.00 | Pen 1.97 0.10
It  21000  10978 | T(s) 10.62 | Feas 54 1324.57 1326.00 | Inf 52 1298.21 1313.00 | Div 0.29 0.34 | Feas 0.07 1.00 | Pen 2.05 0.10
It  21500  11478 | T(s) 10.88 | Feas 45 1324.57 1325.91 | Inf 43 1299.20 1308.77 | Div 0.29 0.31 | Feas 0.11 1.00 | Pen 2.13 0.10
It  22000  11978 | T(s) 11.13 | Feas 42 1324.57 1325.84 | Inf 48 1300.23 1305.55 | Div 0.27 0.24 | Feas 0.06 1.00 | Pen 2.22 0.10
It  22500  12478 | T(s) 11.38 | Feas 46 1324.57 1325.65 | Inf 29 1296.70 1302.84 | Div 0.26 0.31 | Feas 0.24 1.00 | Pen 1.92 0.10
It  23000  12978 | T(s) 11.65 | Feas 44 1324.57 1326.71 | Inf 28 1297.63 1316.67 | Div 0.32 0.43 | Feas 0.08 1.00 | Pen 2.00 0.10
It  23500  13478 | T(s) 11.91 | Feas 31 1324.57 1327.37 | Inf 64 1298.60 1307.44 | Div 0.32 0.27 | Feas 0.23 1.00 | Pen 2.08 0.10
It  24000  13978 | T(s) 12.16 | Feas 61 1324.57 1325.95 | Inf 63 1299.61 1303.64 | Div 0.28 0.23 | Feas 0.09 1.00 | Pen 2.17 0.10
It  24500  14478 | T(s) 12.40 | Feas 56 1324.57 1325.44 | Inf 48 1296.60 1299.05 | Div 0.24 0.21 | Feas 0.28 1.00 | Pen 1.91 0.10
It  25000  14978 | T(s) 12.66 | Feas 52 1324.57 1325.58 | Inf 39 1297.53 1311.75 | Div 0.28 0.37 | Feas 0.10 1.00 | Pen 1.99 0.10
It  25500  15478 | T(s) 12.91 | Feas 29 1324.57 1325.67 | Inf 30 1298.50 1318.35 | Div 0.28 0.43 | Feas 0.05 1.00 | Pen 2.07 0.10
It  26000  15978 | T(s) 13.15 | Feas 34 1324.57 1326.15 | Inf 54 1299.50 1307.80 | Div 0.32 0.31 | Feas 0.09 1.00 | Pen 2.16 0.10
It  26500  16478 | T(s) 13.41 | Feas 31 1324.57 1326.29 | Inf 40 1296.51 1303.70 | Div 0.31 0.31 | Feas 0.30 1.00 | Pen 1.91 0.10
It  27000  16978 | T(s) 13.67 | Feas 35 1324.57 1326.12 | Inf 42 1297.43 1310.49 | Div 0.31 0.35 | Feas 0.10 1.00 | Pen 1.98 0.10
It  27500  17478 | T(s) 13.93 | Feas 25 1324.57 1328.89 | Inf 28 1294.68 1302.79 | Div 0.36 0.39 | Feas 0.32 1.00 | Pen 1.75 0.10
It  28000  17978 | T(s) 14.18 | Feas 47 1324.57 1326.28 | Inf 40 1299.91 1307.42 | Div 0.30 0.29 | Feas 0.11 1.00 | Pen 2.19 0.10
It  28500  18478 | T(s) 14.42 | Feas 32 1324.57 1326.84 | Inf 52 1296.41 1299.98 | Div 0.33 0.23 | Feas 0.25 1.00 | Pen 1.90 0.10
It  29000  18978 | T(s) 14.67 | Feas 51 1324.57 1325.27 | Inf 43 1290.95 1297.51 | Div 0.23 0.33 | Feas 0.28 1.00 | Pen 1.65 0.10
It  29500  19478 | T(s) 14.94 | Feas 48 1324.57 1325.31 | Inf 40 1294.18 1298.73 | Div 0.23 0.33 | Feas 0.26 1.00 | Pen 1.71 0.10
It  30000  19978 | T(s) 15.20 | Feas 49 1324.57 1326.15 | Inf 38 1295.01 1297.98 | Div 0.29 0.23 | Feas 0.26 1.00 | Pen 1.78 0.10
----- GENETIC ALGORITHM FINISHED AFTER 30024 ITERATIONS. TIME SPENT: 15.212
----- WRITING BEST SOLUTION IN : baseline_results/cvrp_hgs/Vrp-Set-B-n66/Vrp-Set-B-n66-hgs/0.hgs1.tour
