experiment/data/hgs-res/Vrp-Set-B-n66/Vrp-Set-B-n66-hgs/0.hgs1.tour
Route #1: 32 58 40 8 65 33
Route #2: 27 14 39 29 3 15 60 4 21 36 24
Route #3: 49 12 9 5 42
Route #4: 2 10 26 46 63 62 16
Route #5: 6 28 47 61 30 7 1
Route #6: 19 35 44 64 59 25 48 37 50
Route #7: 18 23 11 38 57 55
Route #8: 45 31 13 56 22 43 34 51
Route #9: 52 53 54 17 20 41
Cost 1324.57
